
  12    4
  10   10   10   10

   0   0   0   0   0   3 2 3 4 
   3  10  10  10  10   3 7 6 5 
   7  10  10  10  10   3 11 7 6 
   4  10  10  10  10   2 9 7 
   8  10  10  10  10   2 11 10 
   4  10  10  10  10   1 8 
   9  10  10  10  10   1 10 
   6  10  10  10  10   1 9 
   2  10  10  10  10   1 12
   2  10  10  10  10   1 12
   4  10  10  10  10   1 12
   0   0   0   0   0   0 
